language Essence 1.3

letting can_fly be
        relation((1, 3), (1, 5), (1, 7), (1, 9), (1, 10), (1, 11), (1, 12), (1, 13), (1, 15), (1, 17), (1, 18), (1, 19),
                 (1, 21), (1, 22), (1, 23), (1, 25), (1, 28), (1, 29), (1, 30), (1, 31), (1, 33), (2, 3), (2, 4),
                 (2, 5), (2, 6), (2, 12), (2, 14), (2, 17), (2, 21), (2, 24), (2, 29), (2, 31), (2, 32), (2, 35),
                 (2, 36), (2, 38), (3, 3), (3, 7), (3, 9), (3, 10), (3, 14), (3, 15), (3, 16), (3, 17), (3, 19),
                 (3, 20), (3, 21), (3, 22), (3, 23), (3, 25), (3, 28), (3, 29), (3, 30), (3, 32), (3, 33), (3, 34),
                 (3, 38), (4, 2), (4, 3), (4, 4), (4, 5), (4, 8), (4, 9), (4, 11), (4, 13), (4, 16), (4, 19), (4, 20),
                 (4, 21), (4, 22), (4, 25), (4, 26), (4, 27), (4, 28), (4, 31), (4, 33), (4, 34), (4, 35), (4, 36),
                 (5, 3), (5, 4), (5, 6), (5, 8), (5, 9), (5, 12), (5, 14), (5, 15), (5, 19), (5, 20), (5, 21), (5, 22),
                 (5, 25), (5, 27), (5, 31), (5, 32), (5, 35), (6, 1), (6, 4), (6, 9), (6, 10), (6, 11), (6, 12),
                 (6, 13), (6, 15), (6, 17), (6, 19), (6, 25), (6, 26), (6, 28), (6, 29), (6, 32), (6, 35), (6, 36),
                 (7, 4), (7, 5), (7, 6), (7, 7), (7, 8), (7, 10), (7, 11), (7, 14), (7, 19), (7, 20), (7, 22), (7, 23),
                 (7, 24), (7, 27), (7, 28), (7, 30), (7, 33), (7, 37), (7, 38), (8, 1), (8, 2), (8, 3), (8, 5), (8, 7),
                 (8, 11), (8, 12), (8, 21), (8, 22), (8, 26), (8, 27), (8, 30), (8, 37), (8, 38), (9, 1), (9, 3),
                 (9, 7), (9, 8), (9, 11), (9, 13), (9, 21), (9, 23), (9, 24), (9, 25), (9, 27), (9, 28), (9, 29),
                 (9, 32), (9, 35), (9, 38))
$ Visualisation for can_fly
$  1  3
$  1  5
$  1  7
$  1  9
$  1 10
$  1 11
$  1 12
$  1 13
$  1 15
$  1 17
$  1 18
$  1 19
$  1 21
$  1 22
$  1 23
$  1 25
$  1 28
$  1 29
$  1 30
$  1 31
$  1 33
$  2  3
$  2  4
$  2  5
$  2  6
$  2 12
$  2 14
$  2 17
$  2 21
$  2 24
$  2 29
$  2 31
$  2 32
$  2 35
$  2 36
$  2 38
$  3  3
$  3  7
$  3  9
$  3 10
$  3 14
$  3 15
$  3 16
$  3 17
$  3 19
$  3 20
$  3 21
$  3 22
$  3 23
$  3 25
$  3 28
$  3 29
$  3 30
$  3 32
$  3 33
$  3 34
$  3 38
$  4  2
$  4  3
$  4  4
$  4  5
$  4  8
$  4  9
$  4 11
$  4 13
$  4 16
$  4 19
$  4 20
$  4 21
$  4 22
$  4 25
$  4 26
$  4 27
$  4 28
$  4 31
$  4 33
$  4 34
$  4 35
$  4 36
$  5  3
$  5  4
$  5  6
$  5  8
$  5  9
$  5 12
$  5 14
$  5 15
$  5 19
$  5 20
$  5 21
$  5 22
$  5 25
$  5 27
$  5 31
$  5 32
$  5 35
$  6  1
$  6  4
$  6  9
$  6 10
$  6 11
$  6 12
$  6 13
$  6 15
$  6 17
$  6 19
$  6 25
$  6 26
$  6 28
$  6 29
$  6 32
$  6 35
$  6 36
$  7  4
$  7  5
$  7  6
$  7  7
$  7  8
$  7 10
$  7 11
$  7 14
$  7 19
$  7 20
$  7 22
$  7 23
$  7 24
$  7 27
$  7 28
$  7 30
$  7 33
$  7 37
$  7 38
$  8  1
$  8  2
$  8  3
$  8  5
$  8  7
$  8 11
$  8 12
$  8 21
$  8 22
$  8 26
$  8 27
$  8 30
$  8 37
$  8 38
$  9  1
$  9  3
$  9  7
$  9  8
$  9 11
$  9 13
$  9 21
$  9 23
$  9 24
$  9 25
$  9 27
$  9 28
$  9 29
$  9 32
$  9 35
$  9 38

letting carry_in be function(1 --> 27, 2 --> 28, 3 --> 25, 4 --> 6, 5 --> 5, 6 --> 7, 7 --> 17, 8 --> 21, 9 --> 24)
letting maint be
        {1, 2, 3, 6, 7, 8, 10, 11, 12, 13, 14, 15, 17, 18, 19, 20, 21, 24, 25, 27, 28, 29, 30, 31, 32, 33, 34, 36, 37}
letting maint_freq be 12
letting n_flights be 38
letting n_planes be 9
letting network be
        relation((1, 1), (1, 4), (1, 7), (1, 8), (1, 9), (1, 10), (1, 11), (1, 13), (1, 14), (1, 18), (1, 19), (1, 20),
                 (1, 21), (1, 22), (1, 23), (1, 24), (1, 25), (1, 26), (1, 27), (1, 28), (1, 31), (1, 32), (1, 34),
                 (2, 2), (2, 6), (2, 7), (2, 8), (2, 9), (2, 12), (2, 15), (2, 16), (2, 22), (2, 24), (2, 25), (2, 26),
                 (2, 27), (2, 29), (2, 30), (2, 31), (2, 32), (2, 34), (2, 35), (3, 5), (3, 7), (3, 8), (3, 10),
                 (3, 11), (3, 13), (3, 17), (3, 19), (3, 20), (3, 21), (3, 23), (3, 24), (3, 28), (3, 29), (3, 30),
                 (3, 31), (3, 33), (3, 36), (3, 37), (3, 38), (4, 1), (4, 2), (4, 3), (4, 6), (4, 7), (4, 9), (4, 10),
                 (4, 11), (4, 14), (4, 15), (4, 16), (4, 18), (4, 19), (4, 20), (4, 22), (4, 24), (4, 26), (4, 27),
                 (4, 28), (4, 29), (4, 30), (4, 31), (4, 33), (4, 34), (4, 35), (4, 37), (5, 1), (5, 2), (5, 4), (5, 5),
                 (5, 6), (5, 7), (5, 9), (5, 11), (5, 13), (5, 15), (5, 17), (5, 18), (5, 20), (5, 21), (5, 22),
                 (5, 23), (5, 26), (5, 27), (5, 28), (5, 30), (5, 32), (5, 34), (5, 36), (6, 5), (6, 6), (6, 7), (6, 9),
                 (6, 11), (6, 12), (6, 14), (6, 15), (6, 18), (6, 19), (6, 20), (6, 21), (6, 22), (6, 25), (6, 26),
                 (6, 29), (6, 31), (6, 32), (6, 33), (6, 34), (6, 36), (6, 37), (6, 38), (7, 3), (7, 9), (7, 10),
                 (7, 12), (7, 13), (7, 17), (7, 20), (7, 21), (7, 25), (7, 26), (7, 30), (7, 34), (7, 35), (7, 36),
                 (7, 37), (7, 38), (8, 1), (8, 4), (8, 6), (8, 9), (8, 10), (8, 11), (8, 12), (8, 14), (8, 17), (8, 18),
                 (8, 21), (8, 24), (8, 25), (8, 30), (8, 31), (8, 32), (8, 37), (9, 1), (9, 3), (9, 4), (9, 6), (9, 7),
                 (9, 10), (9, 12), (9, 13), (9, 14), (9, 17), (9, 20), (9, 21), (9, 23), (9, 24), (9, 26), (9, 27),
                 (9, 32), (9, 33), (9, 34), (9, 35), (9, 36), (9, 38), (10, 2), (10, 3), (10, 5), (10, 8), (10, 9),
                 (10, 10), (10, 15), (10, 17), (10, 19), (10, 21), (10, 28), (10, 30), (10, 34), (10, 35), (11, 2),
                 (11, 3), (11, 5), (11, 6), (11, 7), (11, 8), (11, 9), (11, 10), (11, 11), (11, 13), (11, 14), (11, 16),
                 (11, 18), (11, 23), (11, 24), (11, 26), (11, 27), (11, 30), (11, 31), (11, 32), (11, 34), (11, 36),
                 (11, 37), (12, 2), (12, 3), (12, 5), (12, 6), (12, 7), (12, 9), (12, 13), (12, 16), (12, 19), (12, 22),
                 (12, 26), (12, 27), (12, 28), (12, 30), (12, 31), (12, 32), (12, 37), (13, 1), (13, 2), (13, 4),
                 (13, 7), (13, 12), (13, 13), (13, 14), (13, 15), (13, 17), (13, 18), (13, 19), (13, 20), (13, 21),
                 (13, 22), (13, 26), (13, 28), (13, 29), (13, 32), (13, 34), (13, 35), (14, 2), (14, 3), (14, 5),
                 (14, 7), (14, 8), (14, 12), (14, 13), (14, 15), (14, 18), (14, 19), (14, 21), (14, 22), (14, 27),
                 (14, 29), (14, 32), (14, 33), (14, 35), (14, 38), (15, 1), (15, 2), (15, 3), (15, 4), (15, 7), (15, 8),
                 (15, 9), (15, 10), (15, 12), (15, 13), (15, 14), (15, 16), (15, 18), (15, 19), (15, 22), (15, 24),
                 (15, 25), (15, 26), (15, 32), (15, 33), (15, 37), (16, 1), (16, 4), (16, 6), (16, 7), (16, 8), (16, 9),
                 (16, 10), (16, 11), (16, 12), (16, 14), (16, 16), (16, 18), (16, 21), (16, 22), (16, 25), (16, 27),
                 (16, 30), (16, 33), (16, 37), (17, 3), (17, 4), (17, 6), (17, 11), (17, 12), (17, 14), (17, 17),
                 (17, 19), (17, 21), (17, 23), (17, 29), (17, 31), (17, 33), (17, 35), (17, 36), (18, 2), (18, 4),
                 (18, 6), (18, 9), (18, 15), (18, 17), (18, 18), (18, 19), (18, 20), (18, 21), (18, 22), (18, 24),
                 (18, 25), (18, 26), (18, 27), (18, 29), (18, 30), (18, 31), (18, 32), (18, 34), (18, 35), (18, 36),
                 (18, 37), (19, 1), (19, 5), (19, 8), (19, 11), (19, 12), (19, 19), (19, 24), (19, 28), (19, 29),
                 (19, 30), (19, 31), (19, 33), (19, 34), (19, 37), (19, 38), (20, 1), (20, 3), (20, 5), (20, 6),
                 (20, 8), (20, 13), (20, 14), (20, 15), (20, 18), (20, 19), (20, 20), (20, 22), (20, 25), (20, 26),
                 (20, 33), (20, 35), (20, 36), (20, 37), (20, 38), (21, 1), (21, 3), (21, 9), (21, 10), (21, 12),
                 (21, 13), (21, 15), (21, 16), (21, 17), (21, 18), (21, 21), (21, 27), (21, 30), (21, 32), (21, 33),
                 (21, 34), (21, 35), (21, 38), (22, 3), (22, 5), (22, 8), (22, 9), (22, 12), (22, 15), (22, 16),
                 (22, 18), (22, 20), (22, 30), (22, 31), (22, 32), (22, 34), (22, 36), (23, 1), (23, 2), (23, 6),
                 (23, 11), (23, 14), (23, 16), (23, 18), (23, 19), (23, 20), (23, 22), (23, 23), (23, 24), (23, 26),
                 (23, 29), (23, 30), (23, 32), (23, 33), (23, 34), (23, 35), (23, 36), (24, 3), (24, 4), (24, 8),
                 (24, 9), (24, 10), (24, 11), (24, 14), (24, 16), (24, 17), (24, 18), (24, 20), (24, 21), (24, 24),
                 (24, 25), (24, 26), (24, 27), (24, 31), (24, 34), (25, 1), (25, 2), (25, 3), (25, 5), (25, 6), (25, 9),
                 (25, 10), (25, 11), (25, 13), (25, 15), (25, 17), (25, 19), (25, 20), (25, 21), (25, 22), (25, 29),
                 (25, 30), (25, 31), (25, 32), (25, 33), (25, 34), (25, 35), (25, 36), (25, 38), (26, 1), (26, 3),
                 (26, 4), (26, 5), (26, 6), (26, 8), (26, 9), (26, 11), (26, 14), (26, 18), (26, 20), (26, 21),
                 (26, 23), (26, 25), (26, 26), (26, 29), (26, 30), (26, 31), (26, 33), (26, 34), (26, 36), (26, 37),
                 (27, 4), (27, 5), (27, 8), (27, 11), (27, 13), (27, 14), (27, 15), (27, 17), (27, 21), (27, 24),
                 (27, 26), (27, 28), (27, 29), (27, 31), (27, 34), (27, 35), (27, 36), (28, 1), (28, 2), (28, 6),
                 (28, 11), (28, 12), (28, 13), (28, 14), (28, 15), (28, 16), (28, 19), (28, 21), (28, 24), (28, 26),
                 (28, 27), (28, 28), (28, 29), (28, 34), (28, 37), (29, 1), (29, 2), (29, 3), (29, 4), (29, 6), (29, 7),
                 (29, 8), (29, 9), (29, 11), (29, 12), (29, 13), (29, 17), (29, 18), (29, 21), (29, 24), (29, 27),
                 (29, 28), (29, 30), (29, 32), (29, 34), (29, 37), (29, 38), (30, 2), (30, 4), (30, 5), (30, 6),
                 (30, 8), (30, 9), (30, 11), (30, 12), (30, 13), (30, 17), (30, 20), (30, 24), (30, 27), (30, 29),
                 (30, 31), (30, 35), (30, 36), (31, 1), (31, 2), (31, 3), (31, 5), (31, 6), (31, 7), (31, 8), (31, 10),
                 (31, 14), (31, 15), (31, 17), (31, 19), (31, 21), (31, 23), (31, 28), (31, 29), (31, 31), (31, 32),
                 (31, 33), (31, 36), (31, 37), (31, 38), (32, 1), (32, 3), (32, 4), (32, 5), (32, 9), (32, 10),
                 (32, 11), (32, 12), (32, 13), (32, 14), (32, 15), (32, 16), (32, 18), (32, 19), (32, 21), (32, 22),
                 (32, 24), (32, 25), (32, 27), (32, 31), (32, 36), (32, 38), (33, 2), (33, 4), (33, 7), (33, 9),
                 (33, 14), (33, 18), (33, 19), (33, 22), (33, 23), (33, 24), (33, 25), (33, 28), (33, 29), (33, 30),
                 (33, 33), (33, 36), (33, 38), (34, 3), (34, 5), (34, 10), (34, 11), (34, 15), (34, 16), (34, 17),
                 (34, 19), (34, 21), (34, 22), (34, 23), (34, 24), (34, 27), (34, 28), (34, 29), (34, 30), (34, 31),
                 (34, 35), (34, 37), (34, 38), (35, 1), (35, 2), (35, 3), (35, 4), (35, 8), (35, 9), (35, 11), (35, 12),
                 (35, 13), (35, 14), (35, 15), (35, 21), (35, 23), (35, 24), (35, 25), (35, 29), (35, 30), (35, 31),
                 (35, 32), (35, 33), (35, 34), (35, 35), (35, 38), (36, 1), (36, 6), (36, 7), (36, 14), (36, 16),
                 (36, 17), (36, 18), (36, 24), (36, 25), (36, 27), (36, 28), (36, 29), (36, 31), (36, 34), (36, 35),
                 (36, 37), (36, 38), (37, 1), (37, 8), (37, 10), (37, 11), (37, 13), (37, 14), (37, 15), (37, 16),
                 (37, 18), (37, 19), (37, 20), (37, 23), (37, 24), (37, 27), (37, 28), (37, 32), (37, 35), (37, 36),
                 (37, 37), (37, 38), (38, 1), (38, 4), (38, 6), (38, 7), (38, 11), (38, 13), (38, 14), (38, 16),
                 (38, 19), (38, 23), (38, 25), (38, 26), (38, 28), (38, 29), (38, 31), (38, 35), (38, 36), (38, 37),
                 (38, 38))
$ Visualisation for network
$  1  1
$  1  4
$  1  7
$  1  8
$  1  9
$  1 10
$  1 11
$  1 13
$  1 14
$  1 18
$  1 19
$  1 20
$  1 21
$  1 22
$  1 23
$  1 24
$  1 25
$  1 26
$  1 27
$  1 28
$  1 31
$  1 32
$  1 34
$  2  2
$  2  6
$  2  7
$  2  8
$  2  9
$  2 12
$  2 15
$  2 16
$  2 22
$  2 24
$  2 25
$  2 26
$  2 27
$  2 29
$  2 30
$  2 31
$  2 32
$  2 34
$  2 35
$  3  5
$  3  7
$  3  8
$  3 10
$  3 11
$  3 13
$  3 17
$  3 19
$  3 20
$  3 21
$  3 23
$  3 24
$  3 28
$  3 29
$  3 30
$  3 31
$  3 33
$  3 36
$  3 37
$  3 38
$  4  1
$  4  2
$  4  3
$  4  6
$  4  7
$  4  9
$  4 10
$  4 11
$  4 14
$  4 15
$  4 16
$  4 18
$  4 19
$  4 20
$  4 22
$  4 24
$  4 26
$  4 27
$  4 28
$  4 29
$  4 30
$  4 31
$  4 33
$  4 34
$  4 35
$  4 37
$  5  1
$  5  2
$  5  4
$  5  5
$  5  6
$  5  7
$  5  9
$  5 11
$  5 13
$  5 15
$  5 17
$  5 18
$  5 20
$  5 21
$  5 22
$  5 23
$  5 26
$  5 27
$  5 28
$  5 30
$  5 32
$  5 34
$  5 36
$  6  5
$  6  6
$  6  7
$  6  9
$  6 11
$  6 12
$  6 14
$  6 15
$  6 18
$  6 19
$  6 20
$  6 21
$  6 22
$  6 25
$  6 26
$  6 29
$  6 31
$  6 32
$  6 33
$  6 34
$  6 36
$  6 37
$  6 38
$  7  3
$  7  9
$  7 10
$  7 12
$  7 13
$  7 17
$  7 20
$  7 21
$  7 25
$  7 26
$  7 30
$  7 34
$  7 35
$  7 36
$  7 37
$  7 38
$  8  1
$  8  4
$  8  6
$  8  9
$  8 10
$  8 11
$  8 12
$  8 14
$  8 17
$  8 18
$  8 21
$  8 24
$  8 25
$  8 30
$  8 31
$  8 32
$  8 37
$  9  1
$  9  3
$  9  4
$  9  6
$  9  7
$  9 10
$  9 12
$  9 13
$  9 14
$  9 17
$  9 20
$  9 21
$  9 23
$  9 24
$  9 26
$  9 27
$  9 32
$  9 33
$  9 34
$  9 35
$  9 36
$  9 38
$ 10  2
$ 10  3
$ 10  5
$ 10  8
$ 10  9
$ 10 10
$ 10 15
$ 10 17
$ 10 19
$ 10 21
$ 10 28
$ 10 30
$ 10 34
$ 10 35
$ 11  2
$ 11  3
$ 11  5
$ 11  6
$ 11  7
$ 11  8
$ 11  9
$ 11 10
$ 11 11
$ 11 13
$ 11 14
$ 11 16
$ 11 18
$ 11 23
$ 11 24
$ 11 26
$ 11 27
$ 11 30
$ 11 31
$ 11 32
$ 11 34
$ 11 36
$ 11 37
$ 12  2
$ 12  3
$ 12  5
$ 12  6
$ 12  7
$ 12  9
$ 12 13
$ 12 16
$ 12 19
$ 12 22
$ 12 26
$ 12 27
$ 12 28
$ 12 30
$ 12 31
$ 12 32
$ 12 37
$ 13  1
$ 13  2
$ 13  4
$ 13  7
$ 13 12
$ 13 13
$ 13 14
$ 13 15
$ 13 17
$ 13 18
$ 13 19
$ 13 20
$ 13 21
$ 13 22
$ 13 26
$ 13 28
$ 13 29
$ 13 32
$ 13 34
$ 13 35
$ 14  2
$ 14  3
$ 14  5
$ 14  7
$ 14  8
$ 14 12
$ 14 13
$ 14 15
$ 14 18
$ 14 19
$ 14 21
$ 14 22
$ 14 27
$ 14 29
$ 14 32
$ 14 33
$ 14 35
$ 14 38
$ 15  1
$ 15  2
$ 15  3
$ 15  4
$ 15  7
$ 15  8
$ 15  9
$ 15 10
$ 15 12
$ 15 13
$ 15 14
$ 15 16
$ 15 18
$ 15 19
$ 15 22
$ 15 24
$ 15 25
$ 15 26
$ 15 32
$ 15 33
$ 15 37
$ 16  1
$ 16  4
$ 16  6
$ 16  7
$ 16  8
$ 16  9
$ 16 10
$ 16 11
$ 16 12
$ 16 14
$ 16 16
$ 16 18
$ 16 21
$ 16 22
$ 16 25
$ 16 27
$ 16 30
$ 16 33
$ 16 37
$ 17  3
$ 17  4
$ 17  6
$ 17 11
$ 17 12
$ 17 14
$ 17 17
$ 17 19
$ 17 21
$ 17 23
$ 17 29
$ 17 31
$ 17 33
$ 17 35
$ 17 36
$ 18  2
$ 18  4
$ 18  6
$ 18  9
$ 18 15
$ 18 17
$ 18 18
$ 18 19
$ 18 20
$ 18 21
$ 18 22
$ 18 24
$ 18 25
$ 18 26
$ 18 27
$ 18 29
$ 18 30
$ 18 31
$ 18 32
$ 18 34
$ 18 35
$ 18 36
$ 18 37
$ 19  1
$ 19  5
$ 19  8
$ 19 11
$ 19 12
$ 19 19
$ 19 24
$ 19 28
$ 19 29
$ 19 30
$ 19 31
$ 19 33
$ 19 34
$ 19 37
$ 19 38
$ 20  1
$ 20  3
$ 20  5
$ 20  6
$ 20  8
$ 20 13
$ 20 14
$ 20 15
$ 20 18
$ 20 19
$ 20 20
$ 20 22
$ 20 25
$ 20 26
$ 20 33
$ 20 35
$ 20 36
$ 20 37
$ 20 38
$ 21  1
$ 21  3
$ 21  9
$ 21 10
$ 21 12
$ 21 13
$ 21 15
$ 21 16
$ 21 17
$ 21 18
$ 21 21
$ 21 27
$ 21 30
$ 21 32
$ 21 33
$ 21 34
$ 21 35
$ 21 38
$ 22  3
$ 22  5
$ 22  8
$ 22  9
$ 22 12
$ 22 15
$ 22 16
$ 22 18
$ 22 20
$ 22 30
$ 22 31
$ 22 32
$ 22 34
$ 22 36
$ 23  1
$ 23  2
$ 23  6
$ 23 11
$ 23 14
$ 23 16
$ 23 18
$ 23 19
$ 23 20
$ 23 22
$ 23 23
$ 23 24
$ 23 26
$ 23 29
$ 23 30
$ 23 32
$ 23 33
$ 23 34
$ 23 35
$ 23 36
$ 24  3
$ 24  4
$ 24  8
$ 24  9
$ 24 10
$ 24 11
$ 24 14
$ 24 16
$ 24 17
$ 24 18
$ 24 20
$ 24 21
$ 24 24
$ 24 25
$ 24 26
$ 24 27
$ 24 31
$ 24 34
$ 25  1
$ 25  2
$ 25  3
$ 25  5
$ 25  6
$ 25  9
$ 25 10
$ 25 11
$ 25 13
$ 25 15
$ 25 17
$ 25 19
$ 25 20
$ 25 21
$ 25 22
$ 25 29
$ 25 30
$ 25 31
$ 25 32
$ 25 33
$ 25 34
$ 25 35
$ 25 36
$ 25 38
$ 26  1
$ 26  3
$ 26  4
$ 26  5
$ 26  6
$ 26  8
$ 26  9
$ 26 11
$ 26 14
$ 26 18
$ 26 20
$ 26 21
$ 26 23
$ 26 25
$ 26 26
$ 26 29
$ 26 30
$ 26 31
$ 26 33
$ 26 34
$ 26 36
$ 26 37
$ 27  4
$ 27  5
$ 27  8
$ 27 11
$ 27 13
$ 27 14
$ 27 15
$ 27 17
$ 27 21
$ 27 24
$ 27 26
$ 27 28
$ 27 29
$ 27 31
$ 27 34
$ 27 35
$ 27 36
$ 28  1
$ 28  2
$ 28  6
$ 28 11
$ 28 12
$ 28 13
$ 28 14
$ 28 15
$ 28 16
$ 28 19
$ 28 21
$ 28 24
$ 28 26
$ 28 27
$ 28 28
$ 28 29
$ 28 34
$ 28 37
$ 29  1
$ 29  2
$ 29  3
$ 29  4
$ 29  6
$ 29  7
$ 29  8
$ 29  9
$ 29 11
$ 29 12
$ 29 13
$ 29 17
$ 29 18
$ 29 21
$ 29 24
$ 29 27
$ 29 28
$ 29 30
$ 29 32
$ 29 34
$ 29 37
$ 29 38
$ 30  2
$ 30  4
$ 30  5
$ 30  6
$ 30  8
$ 30  9
$ 30 11
$ 30 12
$ 30 13
$ 30 17
$ 30 20
$ 30 24
$ 30 27
$ 30 29
$ 30 31
$ 30 35
$ 30 36
$ 31  1
$ 31  2
$ 31  3
$ 31  5
$ 31  6
$ 31  7
$ 31  8
$ 31 10
$ 31 14
$ 31 15
$ 31 17
$ 31 19
$ 31 21
$ 31 23
$ 31 28
$ 31 29
$ 31 31
$ 31 32
$ 31 33
$ 31 36
$ 31 37
$ 31 38
$ 32  1
$ 32  3
$ 32  4
$ 32  5
$ 32  9
$ 32 10
$ 32 11
$ 32 12
$ 32 13
$ 32 14
$ 32 15
$ 32 16
$ 32 18
$ 32 19
$ 32 21
$ 32 22
$ 32 24
$ 32 25
$ 32 27
$ 32 31
$ 32 36
$ 32 38
$ 33  2
$ 33  4
$ 33  7
$ 33  9
$ 33 14
$ 33 18
$ 33 19
$ 33 22
$ 33 23
$ 33 24
$ 33 25
$ 33 28
$ 33 29
$ 33 30
$ 33 33
$ 33 36
$ 33 38
$ 34  3
$ 34  5
$ 34 10
$ 34 11
$ 34 15
$ 34 16
$ 34 17
$ 34 19
$ 34 21
$ 34 22
$ 34 23
$ 34 24
$ 34 27
$ 34 28
$ 34 29
$ 34 30
$ 34 31
$ 34 35
$ 34 37
$ 34 38
$ 35  1
$ 35  2
$ 35  3
$ 35  4
$ 35  8
$ 35  9
$ 35 11
$ 35 12
$ 35 13
$ 35 14
$ 35 15
$ 35 21
$ 35 23
$ 35 24
$ 35 25
$ 35 29
$ 35 30
$ 35 31
$ 35 32
$ 35 33
$ 35 34
$ 35 35
$ 35 38
$ 36  1
$ 36  6
$ 36  7
$ 36 14
$ 36 16
$ 36 17
$ 36 18
$ 36 24
$ 36 25
$ 36 27
$ 36 28
$ 36 29
$ 36 31
$ 36 34
$ 36 35
$ 36 37
$ 36 38
$ 37  1
$ 37  8
$ 37 10
$ 37 11
$ 37 13
$ 37 14
$ 37 15
$ 37 16
$ 37 18
$ 37 19
$ 37 20
$ 37 23
$ 37 24
$ 37 27
$ 37 28
$ 37 32
$ 37 35
$ 37 36
$ 37 37
$ 37 38
$ 38  1
$ 38  4
$ 38  6
$ 38  7
$ 38 11
$ 38 13
$ 38 14
$ 38 16
$ 38 19
$ 38 23
$ 38 25
$ 38 26
$ 38 28
$ 38 29
$ 38 31
$ 38 35
$ 38 36
$ 38 37
$ 38 38

